p cnf 785 1019
c 86 select(1,16)
c 87 nots(1,16)
c 88 select(1,24)
c 89 nots(1,24)
c 90 select(1,18)
c 91 nots(1,18)
c 92 reach(18)
c 93 reach(24)
c 94 reach(16)
c 95 select(16,1)
c 96 nots(16,1)
c 97 select(24,1)
c 98 nots(24,1)
c 99 select(24,6)
c 100 nots(24,6)
c 101 select(24,8)
c 102 nots(24,8)
c 103 select(24,11)
c 104 nots(24,11)
c 105 select(24,14)
c 106 nots(24,14)
c 107 select(24,16)
c 108 nots(24,16)
c 109 select(24,20)
c 110 nots(24,20)
c 111 select(18,1)
c 112 nots(18,1)
c 113 select(18,2)
c 114 nots(18,2)
c 115 select(16,24)
c 116 nots(16,24)
c 117 select(16,28)
c 118 nots(16,28)
c 119 select(16,49)
c 120 nots(16,49)
c 121 select(24,33)
c 122 nots(24,33)
c 123 select(24,38)
c 124 nots(24,38)
c 125 select(24,44)
c 126 nots(24,44)
c 127 select(24,45)
c 128 nots(24,45)
c 129 select(24,53)
c 130 nots(24,53)
c 131 select(24,27)
c 132 nots(24,27)
c 133 reach(27)
c 134 reach(53)
c 135 reach(45)
c 136 reach(44)
c 137 reach(38)
c 138 reach(33)
c 139 reach(49)
c 140 reach(28)
c 141 reach(2)
c 142 reach(20)
c 143 reach(14)
c 144 reach(11)
c 145 reach(8)
c 146 reach(6)
c 147 select(8,7)
c 148 nots(8,7)
c 149 select(28,16)
c 150 nots(28,16)
c 151 select(49,12)
c 152 nots(49,12)
c 153 select(49,16)
c 154 nots(49,16)
c 155 select(33,19)
c 156 nots(33,19)
c 157 select(33,23)
c 158 nots(33,23)
c 159 select(33,24)
c 160 nots(33,24)
c 161 select(38,24)
c 162 nots(38,24)
c 163 select(38,34)
c 164 nots(38,34)
c 165 select(44,8)
c 166 nots(44,8)
c 167 select(44,10)
c 168 nots(44,10)
c 169 select(44,20)
c 170 nots(44,20)
c 171 select(44,24)
c 172 nots(44,24)
c 173 select(44,35)
c 174 nots(44,35)
c 175 select(45,24)
c 176 nots(45,24)
c 177 select(53,15)
c 178 nots(53,15)
c 179 select(53,21)
c 180 nots(53,21)
c 181 select(53,24)
c 182 nots(53,24)
c 183 select(53,30)
c 184 nots(53,30)
c 185 select(27,24)
c 186 nots(27,24)
c 187 select(6,24)
c 188 nots(6,24)
c 189 select(6,26)
c 190 nots(6,26)
c 191 select(6,61)
c 192 nots(6,61)
c 193 select(8,24)
c 194 nots(8,24)
c 195 select(8,10)
c 196 nots(8,10)
c 197 select(8,44)
c 198 nots(8,44)
c 199 select(11,24)
c 200 nots(11,24)
c 201 select(11,23)
c 202 nots(11,23)
c 203 select(14,32)
c 204 nots(14,32)
c 205 select(14,24)
c 206 nots(14,24)
c 207 select(20,24)
c 208 nots(20,24)
c 209 select(20,44)
c 210 nots(20,44)
c 211 select(2,18)
c 212 nots(2,18)
c 213 select(2,12)
c 214 nots(2,12)
c 215 select(28,43)
c 216 nots(28,43)
c 217 select(44,54)
c 218 nots(44,54)
c 219 select(44,58)
c 220 nots(44,58)
c 221 select(45,47)
c 222 nots(45,47)
c 223 select(27,37)
c 224 nots(27,37)
c 225 reach(37)
c 226 reach(47)
c 227 reach(58)
c 228 reach(54)
c 229 reach(43)
c 230 reach(12)
c 231 reach(32)
c 232 reach(23)
c 233 reach(10)
c 234 reach(61)
c 235 reach(26)
c 236 reach(30)
c 237 reach(21)
c 238 reach(15)
c 239 reach(35)
c 240 reach(34)
c 241 reach(19)
c 242 reach(7)
c 243 select(19,7)
c 244 nots(19,7)
c 245 select(34,5)
c 246 nots(34,5)
c 247 select(35,4)
c 248 nots(35,4)
c 249 select(21,12)
c 250 nots(21,12)
c 251 select(21,15)
c 252 nots(21,15)
c 253 select(30,21)
c 254 nots(30,21)
c 255 select(26,6)
c 256 nots(26,6)
c 257 select(61,6)
c 258 nots(61,6)
c 259 select(61,26)
c 260 nots(61,26)
c 261 select(10,8)
c 262 nots(10,8)
c 263 select(23,11)
c 264 nots(23,11)
c 265 select(32,14)
c 266 nots(32,14)
c 267 select(12,2)
c 268 nots(12,2)
c 269 select(43,28)
c 270 nots(43,28)
c 271 select(43,29)
c 272 nots(43,29)
c 273 select(54,4)
c 274 nots(54,4)
c 275 select(54,9)
c 276 nots(54,9)
c 277 select(54,40)
c 278 nots(54,40)
c 279 select(54,41)
c 280 nots(54,41)
c 281 select(54,44)
c 282 nots(54,44)
c 283 select(58,4)
c 284 nots(58,4)
c 285 select(58,44)
c 286 nots(58,44)
c 287 select(58,54)
c 288 nots(58,54)
c 289 select(47,13)
c 290 nots(47,13)
c 291 select(47,45)
c 292 nots(47,45)
c 293 select(37,12)
c 294 nots(37,12)
c 295 select(37,27)
c 296 nots(37,27)
c 297 select(7,8)
c 298 nots(7,8)
c 299 select(7,19)
c 300 nots(7,19)
c 301 select(19,33)
c 302 nots(19,33)
c 303 select(34,38)
c 304 nots(34,38)
c 305 select(35,44)
c 306 nots(35,44)
c 307 select(15,53)
c 308 nots(15,53)
c 309 select(15,21)
c 310 nots(15,21)
c 311 select(21,53)
c 312 nots(21,53)
c 313 select(21,30)
c 314 nots(21,30)
c 315 select(30,53)
c 316 nots(30,53)
c 317 select(26,61)
c 318 nots(26,61)
c 319 select(10,44)
c 320 nots(10,44)
c 321 select(23,33)
c 322 nots(23,33)
c 323 select(12,37)
c 324 nots(12,37)
c 325 select(12,42)
c 326 nots(12,42)
c 327 select(12,49)
c 328 nots(12,49)
c 329 select(12,21)
c 330 nots(12,21)
c 331 select(12,55)
c 332 nots(12,55)
c 333 select(54,58)
c 334 nots(54,58)
c 335 select(37,42)
c 336 nots(37,42)
c 337 reach(42)
c 338 reach(55)
c 339 reach(13)
c 340 reach(4)
c 341 reach(41)
c 342 reach(40)
c 343 reach(9)
c 344 reach(29)
c 345 reach(5)
c 346 select(40,9)
c 347 nots(40,9)
c 348 select(41,9)
c 349 nots(41,9)
c 350 select(41,40)
c 351 nots(41,40)
c 352 select(55,12)
c 353 nots(55,12)
c 354 select(55,52)
c 355 nots(55,52)
c 356 select(42,12)
c 357 nots(42,12)
c 358 select(42,36)
c 359 nots(42,36)
c 360 select(42,37)
c 361 nots(42,37)
c 362 select(5,34)
c 363 nots(5,34)
c 364 select(29,48)
c 365 nots(29,48)
c 366 select(29,43)
c 367 nots(29,43)
c 368 select(9,40)
c 369 nots(9,40)
c 370 select(9,41)
c 371 nots(9,41)
c 372 select(9,54)
c 373 nots(9,54)
c 374 select(40,54)
c 375 nots(40,54)
c 376 select(40,41)
c 377 nots(40,41)
c 378 select(41,54)
c 379 nots(41,54)
c 380 select(4,58)
c 381 nots(4,58)
c 382 select(4,35)
c 383 nots(4,35)
c 384 select(4,54)
c 385 nots(4,54)
c 386 select(13,47)
c 387 nots(13,47)
c 388 select(42,56)
c 389 nots(42,56)
c 390 reach(56)
c 391 reach(48)
c 392 reach(36)
c 393 reach(52)
c 394 select(52,22)
c 395 nots(52,22)
c 396 select(36,17)
c 397 nots(36,17)
c 398 select(48,29)
c 399 nots(48,29)
c 400 select(56,42)
c 401 nots(56,42)
c 402 select(56,51)
c 403 nots(56,51)
c 404 select(52,55)
c 405 nots(52,55)
c 406 select(36,42)
c 407 nots(36,42)
c 408 select(48,51)
c 409 nots(48,51)
c 410 reach(51)
c 411 reach(17)
c 412 reach(22)
c 413 select(51,48)
c 414 nots(51,48)
c 415 select(22,52)
c 416 nots(22,52)
c 417 select(22,62)
c 418 nots(22,62)
c 419 select(17,36)
c 420 nots(17,36)
c 421 select(51,56)
c 422 nots(51,56)
c 423 reach(62)
c 424 select(62,3)
c 425 nots(62,3)
c 426 select(62,22)
c 427 nots(62,22)
c 428 reach(3)
c 429 select(3,25)
c 430 nots(3,25)
c 431 select(3,46)
c 432 nots(3,46)
c 433 select(3,62)
c 434 nots(3,62)
c 435 reach(46)
c 436 reach(25)
c 437 select(25,3)
c 438 nots(25,3)
c 439 select(46,3)
c 440 nots(46,3)
c 441 select(25,57)
c 442 nots(25,57)
c 443 select(25,39)
c 444 nots(25,39)
c 445 select(46,57)
c 446 nots(46,57)
c 447 reach(57)
c 448 reach(39)
c 449 select(39,25)
c 450 nots(39,25)
c 451 select(57,25)
c 452 nots(57,25)
c 453 select(57,31)
c 454 nots(57,31)
c 455 select(57,39)
c 456 nots(57,39)
c 457 select(57,46)
c 458 nots(57,46)
c 459 select(57,50)
c 460 nots(57,50)
c 461 select(39,57)
c 462 nots(39,57)
c 463 reach(50)
c 464 reach(31)
c 465 select(31,57)
c 466 nots(31,57)
c 467 select(31,59)
c 468 nots(31,59)
c 469 select(50,57)
c 470 nots(50,57)
c 471 reach(59)
c 472 select(59,31)
c 473 nots(59,31)
c 474 select(59,60)
c 475 nots(59,60)
c 476 reach(60)
c 477 select(60,59)
c 478 nots(60,59)
c 542 edge(1,16)
c 543 edge(1,24)
c 544 edge(1,18)
c 545 edge(2,18)
c 546 edge(2,12)
c 547 edge(3,25)
c 548 edge(3,46)
c 549 edge(3,62)
c 550 edge(4,58)
c 551 edge(4,35)
c 552 edge(4,54)
c 553 edge(5,34)
c 554 edge(6,24)
c 555 edge(6,26)
c 556 edge(6,61)
c 557 edge(7,8)
c 558 edge(7,19)
c 559 edge(8,24)
c 560 edge(8,10)
c 561 edge(8,44)
c 562 edge(9,40)
c 563 edge(9,41)
c 564 edge(9,54)
c 565 edge(10,44)
c 566 edge(11,24)
c 567 edge(11,23)
c 568 edge(12,37)
c 569 edge(12,42)
c 570 edge(12,49)
c 571 edge(12,21)
c 572 edge(12,55)
c 573 edge(13,47)
c 574 edge(14,32)
c 575 edge(14,24)
c 576 edge(15,53)
c 577 edge(15,21)
c 578 edge(16,24)
c 579 edge(16,28)
c 580 edge(16,49)
c 581 edge(17,36)
c 582 edge(19,33)
c 583 edge(20,24)
c 584 edge(20,44)
c 585 edge(21,53)
c 586 edge(21,30)
c 587 edge(22,52)
c 588 edge(22,62)
c 589 edge(23,33)
c 590 edge(24,33)
c 591 edge(24,38)
c 592 edge(24,44)
c 593 edge(24,45)
c 594 edge(24,53)
c 595 edge(24,27)
c 596 edge(25,57)
c 597 edge(25,39)
c 598 edge(26,61)
c 599 edge(27,37)
c 600 edge(28,43)
c 601 edge(29,48)
c 602 edge(29,43)
c 603 edge(30,53)
c 604 edge(31,57)
c 605 edge(31,59)
c 606 edge(34,38)
c 607 edge(35,44)
c 608 edge(36,42)
c 609 edge(37,42)
c 610 edge(39,57)
c 611 edge(40,54)
c 612 edge(40,41)
c 613 edge(41,54)
c 614 edge(42,56)
c 615 edge(44,54)
c 616 edge(44,58)
c 617 edge(45,47)
c 618 edge(46,57)
c 619 edge(48,51)
c 620 edge(50,57)
c 621 edge(51,56)
c 622 edge(52,55)
c 623 edge(54,58)
c 624 edge(59,60)
c 625 reach(1)
c 626 goal(62)
423 0
-531 0
542 0
543 0
544 0
545 0
546 0
547 0
548 0
549 0
550 0
551 0
552 0
553 0
554 0
555 0
556 0
557 0
558 0
559 0
560 0
561 0
562 0
563 0
564 0
565 0
566 0
567 0
568 0
569 0
570 0
571 0
572 0
573 0
574 0
575 0
576 0
577 0
578 0
579 0
580 0
581 0
582 0
583 0
584 0
585 0
586 0
587 0
588 0
589 0
590 0
591 0
592 0
593 0
594 0
595 0
596 0
597 0
598 0
599 0
600 0
601 0
602 0
603 0
604 0
605 0
606 0
607 0
608 0
609 0
610 0
611 0
612 0
613 0
614 0
615 0
616 0
617 0
618 0
619 0
620 0
621 0
622 0
623 0
624 0
625 0
626 0
-1 0
-2 0
-3 0
-4 0
-5 0
-6 0
-7 0
-8 0
-9 0
-10 0
-11 0
-12 0
-13 0
-14 0
-15 0
-16 0
-17 0
-18 0
-19 0
-20 0
-21 0
-22 0
-23 0
-24 0
-25 0
-26 0
-27 0
-28 0
-29 0
-30 0
-31 0
-32 0
-33 0
-34 0
-35 0
-36 0
-37 0
-38 0
-39 0
-40 0
-41 0
-42 0
-43 0
-44 0
-45 0
-46 0
-47 0
-48 0
-49 0
-50 0
-51 0
-52 0
-53 0
-54 0
-55 0
-56 0
-57 0
-58 0
-59 0
-60 0
-61 0
-62 0
-63 0
-64 0
-65 0
-66 0
-67 0
-68 0
-69 0
-70 0
-71 0
-72 0
-73 0
-74 0
-75 0
-76 0
-77 0
-78 0
-79 0
-80 0
-81 0
-82 0
-83 0
-84 0
-85 0
-479 0
-480 0
-481 0
-482 0
-483 0
-484 0
-485 0
-486 0
-487 0
-488 0
-489 0
-490 0
-491 0
-492 0
-493 0
-494 0
-495 0
-496 0
-497 0
-498 0
-499 0
-500 0
-501 0
-502 0
-503 0
-504 0
-505 0
-506 0
-507 0
-508 0
-509 0
-510 0
-511 0
-512 0
-513 0
-514 0
-515 0
-516 0
-517 0
-518 0
-519 0
-520 0
-521 0
-522 0
-523 0
-524 0
-525 0
-526 0
-527 0
-528 0
-529 0
-530 0
-784 0
-424 0
-764 0
425 0
-785 0
-426 0
-763 0
427 0
-532 0
-533 0
-534 0
-535 0
-536 0
-537 0
-538 0
-539 0
-540 0
-541 0
-433 0
-765 0
760 0
417 0
412 0
-418 0
-415 0
757 0
416 0
-761 0
394 0
393 0
-395 0
-404 0
746 0
-753 0
405 0
354 0
338 0
-355 0
-352 0
686 0
353 0
-747 0
331 0
230 0
-332 0
-267 0
-325 0
-327 0
-329 0
-323 0
324 0
-717 0
268 0
-689 0
326 0
-688 0
328 0
-687 0
330 0
-690 0
-95 0
-97 0
-111 0
-114 0
-266 0
-363 0
-387 0
-420 0
-470 0
-478 0
-434 0
-112 0
-98 0
-96 0
-91 0
-89 0
-87 0
-745 0
-726 0
-705 0
-681 0
-651 0
-782 0
-781 0
-773 0
-770 0
-768 0
-767 0
-752 0
-723 0
-722 0
-706 0
-700 0
-698 0
-696 0
-694 0
-680 0
-676 0
-669 0
-655 0
-475 0
-473 0
-468 0
-466 0
-462 0
-460 0
-458 0
-456 0
-454 0
-452 0
-450 0
-446 0
-444 0
-442 0
-440 0
-438 0
-432 0
-430 0
-422 0
-414 0
-409 0
-407 0
-403 0
-401 0
-399 0
-397 0
-389 0
-385 0
-383 0
-381 0
-379 0
-377 0
-375 0
-373 0
-371 0
-369 0
-367 0
-365 0
-361 0
-359 0
-357 0
-351 0
-349 0
-347 0
-336 0
-334 0
-322 0
-320 0
-318 0
-316 0
-315 0
-314 0
-312 0
-310 0
-396 0
-411 0
-419 0
-759 0
-406 0
-308 0
-306 0
-304 0
-303 0
-429 0
-302 0
-445 0
-300 0
-298 0
-296 0
-294 0
-472 0
-474 0
-476 0
-477 0
-783 0
-106 0
-108 0
-110 0
-104 0
-116 0
-118 0
-120 0
-122 0
-124 0
-126 0
-128 0
-130 0
-132 0
-148 0
-150 0
-152 0
-154 0
-156 0
-158 0
-160 0
-162 0
-164 0
-166 0
-168 0
-170 0
-172 0
-174 0
-176 0
-178 0
-180 0
-182 0
-184 0
-186 0
-188 0
-190 0
-192 0
-194 0
-196 0
-198 0
-200 0
-202 0
-204 0
-206 0
-208 0
-210 0
-212 0
-214 0
-216 0
-218 0
-220 0
-222 0
-224 0
-102 0
-244 0
-246 0
-248 0
-250 0
-252 0
-254 0
-256 0
-258 0
-260 0
-262 0
-264 0
-151 0
-270 0
-272 0
-274 0
-276 0
-278 0
-280 0
-282 0
-284 0
-286 0
-288 0
-290 0
-292 0
-100 0
-153 0
-161 0
-203 0
-231 0
-265 0
-718 0
-211 0
-652 0
-245 0
-255 0
-289 0
-291 0
-345 0
-362 0
-742 0
-339 0
-386 0
-730 0
-408 0
-301 0
-299 0
-297 0
-321 0
-317 0
-751 0
-271 0
-269 0
-263 0
-261 0
-259 0
-305 0
-319 0
-247 0
-364 0
-243 0
-223 0
-309 0
-221 0
-215 0
-741 0
-398 0
-756 0
-207 0
-209 0
-400 0
-449 0
-402 0
-201 0
-199 0
-185 0
-431 0
-766 0
-163 0
-728 0
-467 0
-780 0
-90 0
-88 0
-149 0
-727 0
-721 0
-720 0
-719 0
-413 0
-716 0
-702 0
-701 0
-699 0
-421 0
-758 0
-439 0
-771 0
-697 0
-627 0
-92 0
-113 0
-693 0
-675 0
-656 0
-366 0
-740 0
-647 0
-646 0
-639 0
-630 0
-443 0
-640 0
-775 0
-642 0
-769 0
-117 0
-461 0
-307 0
-636 0
-648 0
-649 0
-205 0
-119 0
-257 0
-750 0
-372 0
-749 0
-748 0
-744 0
-659 0
-739 0
-738 0
-737 0
-735 0
-733 0
-665 0
-732 0
-384 0
-668 0
-368 0
-670 0
-725 0
-672 0
-673 0
-159 0
-187 0
-348 0
-382 0
-463 0
-380 0
-335 0
-378 0
-469 0
-711 0
-191 0
-704 0
-376 0
-374 0
-295 0
-695 0
-285 0
-287 0
-179 0
-459 0
-183 0
-195 0
-197 0
-251 0
-388 0
-147 0
-703 0
-709 0
-710 0
-641 0
-777 0
-776 0
-714 0
-715 0
-643 0
-774 0
-682 0
-691 0
-678 0
-645 0
-632 0
-724 0
-762 0
-755 0
-653 0
-743 0
-662 0
-333 0
-631 0
-712 0
-778 0
-713 0
-679 0
-772 0
-634 0
-661 0
-666 0
-660 0
-667 0
-638 0
-633 0
-644 0
-629 0
-674 0
-671 0
-635 0
-441 0
-391 0
-734 0
-142 0
-311 0
-736 0
-779 0
-175 0
-465 0
-754 0
-664 0
-628 0
654 657 -225 360 677 663 -213 -93 181 105 127 123 171 193 115 0
677 654 -225 360 657 663 -93 181 105 127 123 171 193 -86 115 0
86 139 107 140 -94 0
93 -99 0
93 -101 0
93 -103 0
93 -105 0
93 -107 0
93 -109 0
94 -115 0
93 -121 0
93 -123 0
93 -125 0
93 -127 0
93 -129 0
-131 93 0
226 -135 127 0
-654 -136 125 692 708 658 273 281 -340 283 0
240 -137 123 0
232 -138 121 241 0
-139 -115 0
-144 232 103 0
234 -146 99 235 0
86 -650 107 139 -94 0
-155 138 0
138 -157 0
136 -165 0
136 -167 0
136 -169 0
136 -171 0
136 -173 0
134 -177 0
-181 134 0
146 -189 0
145 -193 0
-213 141 0
136 -217 0
-219 136 0
-213 115 663 654 677 657 -93 181 105 127 123 171 193 133 0
-650 140 0
-232 -657 157 0
-658 -193 0
-663 235 -234 0
234 -235 189 0
-235 -663 99 0
-181 238 253 -237 0
-654 -136 125 658 692 708 239 281 0
165 242 101 233 -145 0
-677 -157 0
-232 144 157 0
-241 155 242 0
-683 -193 0
-249 237 0
236 -253 0
228 -273 0
228 -275 0
228 -277 0
228 -279 0
228 -281 0
227 -283 0
-293 225 0
-313 237 0
-133 -293 131 0
-685 -275 0
-144 -242 103 121 683 -138 0
-136 658 125 239 692 708 169 281 109 0
-144 -138 121 241 103 0
-707 -283 0
-707 227 0
350 277 343 -342 0
341 -343 346 275 0
239 -340 283 273 0
637 -140 229 0
155 165 101 233 -145 -241 0
-242 683 241 0
342 -346 0
341 -350 0
337 -356 0
337 -358 0
337 -360 0
343 -370 0
-729 -358 0
-239 173 340 0
-370 275 707 731 -228 342 -343 217 0
344 -229 650 0
344 358 729 684 -337 0
133 -225 360 0
637 -140 -410 390 -344 0
410 -390 729 0
410 637 -344 650 -229 -140 0
436 -437 0
-448 -437 455 0
435 -428 437 0
447 -451 0
447 -453 0
447 -455 0
447 -457 0
428 -435 457 0
471 -464 453 0
-436 -435 457 448 451 0
435 -437 -451 453 -447 448 0
-213 -86 0
-101 -99 -93 0
-103 -99 -93 0
-103 -101 -93 0
-105 -99 -93 0
-105 -101 -93 0
-105 -103 -93 0
-107 -99 -93 0
-107 -101 -93 0
-107 -103 -93 0
-107 -105 -93 0
-109 -99 -93 0
-109 -101 -93 0
-109 -103 -93 0
-109 -105 -93 0
-109 -107 -93 0
-637 94 0
-637 -139 0
-637 -115 0
-121 -99 -93 0
-121 -101 -93 0
-121 -103 -93 0
-121 -105 -93 0
-107 -121 -93 0
-109 -121 -93 0
-131 -121 0
-123 -99 -93 0
-123 -101 -93 0
-123 -103 -93 0
-123 -105 -93 0
-107 -123 -93 0
-109 -123 -93 0
-123 -121 -93 0
-131 -123 0
-125 -99 -93 0
-125 -101 -93 0
-125 -103 -93 0
-125 -105 -93 0
-107 -125 -93 0
-109 -125 -93 0
-125 -121 -93 0
-125 -123 -93 0
-131 -125 0
-127 -99 -93 0
-127 -101 -93 0
-127 -103 -93 0
-127 -105 -93 0
-107 -127 -93 0
-109 -127 -93 0
-127 -121 -93 0
-127 -123 -93 0
-127 -125 -93 0
-131 -127 0
-129 -99 -93 0
-129 -101 -93 0
-129 -103 -93 0
-129 -105 -93 0
-107 -129 -93 0
-109 -129 -93 0
-129 -121 -93 0
-129 -123 -93 0
-129 -125 -93 0
-129 -127 -93 0
-131 -129 0
-131 -99 0
-131 -101 0
-131 -103 0
-131 -105 0
-131 -107 0
-131 -109 0
213 249 356 293 139 0
-155 -157 0
-677 138 0
-677 -155 0
-165 -167 -136 0
-169 -165 -136 0
-169 -167 -136 0
-171 -165 -136 0
-171 -167 -136 0
-169 -171 -136 0
-165 -173 -136 0
-167 -173 -136 0
-169 -173 -136 0
-171 -173 -136 0
-181 -177 0
134 -236 313 0
-236 -177 313 0
-237 313 238 -236 253 0
238 134 -237 253 0
-663 146 0
-663 -189 0
-234 146 235 0
-233 167 -683 0
-193 -233 167 0
-658 145 0
-658 -233 167 0
-683 145 0
-683 -658 0
-657 144 0
-654 169 109 0
86 249 -650 293 213 356 107 0
-165 -217 -136 0
-217 -167 -136 0
-169 -217 -136 0
-171 -217 -136 0
-217 -173 -136 0
-219 -165 0
-219 -167 0
-219 -169 0
-219 -171 0
-219 -173 0
-219 -217 0
-249 -238 177 0
-273 -275 -228 0
-273 -277 -228 0
-277 -275 -228 0
-273 -279 -228 0
-279 -275 -228 0
-279 -277 -228 0
-281 -273 -228 0
-281 -275 -228 0
-281 -277 -228 0
-281 -279 -228 0
-708 227 0
-708 -707 0
-708 -283 0
131 -133 -684 0
-241 -692 155 165 101 -145 0
-249 -134 129 0
-238 -313 177 0
236 -134 237 129 238 0
-249 -313 0
-313 -134 129 238 -253 0
-181 -237 129 253 0
-692 233 0
-685 -279 0
-685 -281 0
-685 228 0
-685 -273 0
-685 -277 0
-684 225 0
-293 -684 0
-356 -358 -337 0
-356 -360 -337 0
-360 -358 -337 0
-370 -342 277 350 0
341 707 -342 731 -228 277 -346 217 0
-346 -370 731 707 -228 -350 217 0
279 -341 -346 370 0
341 731 342 707 -228 343 217 0
-343 275 346 -350 0
219 -227 685 340 0
-731 340 0
219 -731 -227 685 0
-729 337 0
-729 -360 0
-729 -356 0
637 -140 -337 358 684 -344 -410 0
637 -140 729 650 -344 -390 -229 0
-448 436 455 0
428 -436 448 451 0
-451 -453 -447 0
-451 -455 -447 0
-455 -453 -447 0
-457 -451 -447 0
-457 -453 -447 0
-457 -447 -455 0
654 677 -93 663 657 181 105 127 123 171 193 -86 115 133 0
93 -115 0
-654 93 0
-657 93 0
93 -193 0
93 -181 0
93 -171 0
-677 93 0
-86 94 0
-107 94 0
213 249 293 356 107 86 140 0
-131 133 0
-133 131 225 0
-129 134 0
-127 135 0
136 -125 0
-136 658 708 273 169 692 281 -340 109 125 283 0
-658 136 0
-692 136 0
-708 136 0
136 -281 0
-123 137 0
-121 138 0
-242 -138 121 683 232 0
94 -139 0
-637 140 0
-105 143 0
-103 144 0
-101 145 0
-165 145 0
-692 165 -145 101 242 0
-99 146 0
-360 225 0
-219 227 0
-685 227 0
173 -227 685 -239 219 0
228 -217 0
-707 228 0
-731 228 0
707 -350 343 731 -228 -341 217 279 0
-650 229 0
-157 232 0
145 -233 167 0
-167 233 0
-189 235 0
-181 -236 313 0
-313 236 0
237 -253 0
-177 238 0
237 177 -238 0
-173 239 0
-731 173 -239 0
-155 241 0
-683 242 0
-684 337 0
358 684 390 -337 0
340 -283 0
-273 340 0
341 -279 0
342 -341 370 279 0
341 -370 0
342 -277 0
731 707 -228 -341 -342 -343 370 275 277 346 217 279 0
342 -350 0
343 -275 0
343 -346 0
684 -337 729 650 358 0
-729 390 0
684 358 -337 -410 229 -344 0
-358 392 0
-410 390 229 -344 0
428 -437 0
435 -457 0
436 -451 0
436 -428 448 -447 453 -457 0
448 -455 0
-453 464 0
